This is Ipopt version 3.10.0, running with linear solver ma27.

Number of nonzeros in equality constraint Jacobian...:        0
Number of nonzeros in inequality constraint Jacobian.:       48
Number of nonzeros in Lagrangian Hessian.............:        0

Total number of variables............................:        6
                     variables with only lower bounds:        0
                variables with lower and upper bounds:        6
                     variables with only upper bounds:        0
Total number of equality constraints.................:        0
Total number of inequality constraints...............:        8
        inequality constraints with only lower bounds:        0
   inequality constraints with lower and upper bounds:        0
        inequality constraints with only upper bounds:        8

iter    objective    inf_pr   inf_du lg(mu)  ||d||  lg(rg) alpha_du alpha_pr  ls
   0  7.6645075e+00 2.46e+00 1.15e+00   0.0 0.00e+00    -  0.00e+00 0.00e+00   0
   1  9.2759296e+00 1.58e+00 1.01e+01  -0.5 1.48e+00    -  5.31e-01 4.93e-01f  1
   2  9.8804446e+00 7.38e-01 5.90e+00  -0.5 9.41e-01    -  9.82e-01 5.81e-01h  1
   3  1.5127287e+01 3.56e-01 3.79e+01  -0.2 1.69e+00    -  7.96e-01 8.60e-01h  1
   4  1.4498826e+01 2.20e-01 6.45e+00  -0.0 9.10e-01    -  5.76e-01 6.89e-01f  1
   5  1.5243508e+01 1.14e-01 6.26e+00  -0.8 3.76e-01    -  9.91e-01 5.76e-01h  1
   6  1.5556445e+01 8.58e-02 1.30e+01  -2.1 2.21e-01    -  9.98e-01 2.45e-01h  1
   7  1.6357545e+01 3.94e-02 1.57e+01  -2.4 3.66e-01    -  1.00e+00 5.22e-01h  1
   8  1.7266196e+01 0.00e+00 3.37e+00  -3.2 3.45e-01    -  1.00e+00 1.00e+00h  1
   9  1.6957977e+01 5.27e-03 2.43e+00  -2.7 2.37e-01    -  1.00e+00 1.00e+00f  1
iter    objective    inf_pr   inf_du lg(mu)  ||d||  lg(rg) alpha_du alpha_pr  ls
  10  1.6899863e+01 2.55e-03 4.10e-01  -3.2 1.16e-01    -  1.00e+00 9.94e-01h  1
  11  1.6964649e+01 3.56e-04 8.61e-02  -4.3 2.26e-02    -  1.00e+00 9.67e-01h  1
  12  1.6973617e+01 3.84e-04 5.30e-02  -5.7 3.40e-03    -  1.00e+00 1.00e+00h  1
  13  1.6968979e+01 1.35e-04 2.10e-02  -7.2 2.18e-03    -  1.00e+00 1.00e+00h  1
  14  1.6969214e+01 1.86e-04 8.16e-02  -9.1 1.05e-03    -  1.00e+00 1.00e+00H  1
  15  1.6968775e+01 4.92e-04 1.22e-02 -11.0 1.41e-03    -  1.00e+00 1.56e-02h  7
  16  1.6969238e+01 0.00e+00 1.57e-02 -11.0 9.70e-04    -  1.00e+00 2.50e-01h  3

Number of Iterations....: 16

                                   (scaled)                 (unscaled)
Objective...............:   1.6969237737430721e+01    1.6969237737430721e+01
Dual infeasibility......:   1.5727536109035923e-02    1.5727536109035923e-02
Constraint violation....:   0.0000000000000000e+00    0.0000000000000000e+00
Complementarity.........:   5.2914139386100043e-10    5.2914139386100043e-10
Overall NLP error.......:   1.5727536109035923e-02    1.5727536109035923e-02


Number of objective function evaluations             = 31
Number of objective gradient evaluations             = 17
Number of equality constraint evaluations            = 0
Number of inequality constraint evaluations          = 31
Number of equality constraint Jacobian evaluations   = 0
Number of inequality constraint Jacobian evaluations = 17
Number of Lagrangian Hessian evaluations             = 0
Total CPU secs in IPOPT (w/o function evaluations)   =      0.022
Total CPU secs in NLP function evaluations           =    871.679

EXIT: Stopping optimization at current point as requested by user.
